num_wann        =  4
num_iter        = 20
use_ws_distance = .false.
search_shells=12

begin atoms_frac
C   -0.12500  -0.1250    -0.125000
C    0.12500   0.1250     0.125000
end atoms_frac


begin projections
f=0.0,0.0,0.0:s
f=0.0,0.0,0.5:s
f=0.0,0.5,0.0:s
f=0.5,0.0,0.0:s
end projections


begin unit_cell_cart
-1.613990   0.000000   1.613990
 0.000000   1.613990   1.613990
-1.613990   1.613990   0.000000
end unit_cell_cart

mp_grid : 4 4 4

begin kpoints
0.0000  0.0000     0.0000
0.0000  0.2500     0.0000
0.0000  0.5000     0.0000
0.0000  0.7500     0.0000
0.2500  0.0000     0.0000
0.2500  0.2500     0.0000
0.2500  0.5000     0.0000
0.2500  0.7500     0.0000
0.5000  0.0000     0.0000
0.5000  0.2500     0.0000
0.5000  0.5000     0.0000
0.5000  0.7500     0.0000
0.7500  0.0000     0.0000
0.7500  0.2500     0.0000
0.7500  0.5000     0.0000
0.7500  0.7500     0.0000
0.0000  0.0000   0.2500
0.0000  0.2500   0.2500
0.0000  0.5000   0.2500
0.0000  0.7500   0.2500
0.2500  0.0000   0.2500
0.2500  0.2500   0.2500
0.2500  0.5000   0.2500
0.2500  0.7500   0.2500
0.5000  0.0000   0.2500
0.5000  0.2500   0.2500
0.5000  0.5000   0.2500
0.5000  0.7500   0.2500
0.7500  0.0000   0.2500
0.7500  0.2500   0.2500
0.7500  0.5000   0.2500
0.7500  0.7500   0.2500
0.0000  0.0000   0.5000
0.0000  0.2500   0.5000
0.0000  0.5000   0.5000
0.0000  0.7500   0.5000
0.2500  0.0000   0.5000
0.2500  0.2500   0.5000
0.2500  0.5000   0.5000
0.2500  0.7500   0.5000
0.5000  0.0000   0.5000
0.5000  0.2500   0.5000
0.5000  0.5000   0.5000
0.5000  0.7500   0.5000
0.7500  0.0000   0.5000
0.7500  0.2500   0.5000
0.7500  0.5000   0.5000
0.7500  0.7500   0.5000
0.0000  0.0000   0.7500
0.0000  0.2500   0.7500
0.0000  0.5000   0.7500
0.0000  0.7500   0.7500
0.2500  0.0000   0.7500
0.2500  0.2500   0.7500
0.2500  0.5000   0.7500
0.2500  0.7500   0.7500
0.5000  0.0000   0.7500
0.5000  0.2500   0.7500
0.5000  0.5000   0.7500
0.5000  0.7500   0.7500
0.7500  0.0000   0.7500
0.7500  0.2500   0.7500
0.7500  0.5000   0.7500
0.7500  0.7500   0.7500
end kpoints

bands_plot = .true.
bands_num_points = 50
begin kpoint_path
L 0.50 0.50 0.50  G 0.00 0.00 0.00
G 0.00 0.00 0.00  X 0.50 0.00 0.50
X 0.50 0.00 0.50  K 0.375 0.375 0.75
K 0.375 0.375 0.75  G 0.00 0.00 0.00
end kpoint_path
